p cnf 123 159
-1 105 -106 -115 0 
-1 106 -105 -115 0 
-2 78 102 107 0 
-3 12 34 107 0 
-4 6 32 48 61 64 71 85 93 99 108 0 
-4 6 32 48 61 64 71 85 93 99 109 0 
-5 8 9 107 0 
-6 4 32 48 61 64 71 85 93 99 108 0 
-6 4 32 48 61 64 71 85 93 99 109 0 
-7 11 14 15 18 28 30 42 107 0 
-8 5 9 108 0 
-9 5 8 -10 21 31 35 43 56 75 77 110 0 
-11 7 14 15 18 28 30 42 -12 3 34 108 0 
-8 5 9 109 0 
-13 111 -105 -106 -115 0 
-14 7 11 15 18 28 30 42 112 0 
-15 7 11 14 18 28 30 42 113 -105 -106 -115 0 
-9 5 8 114 0 
-16 114 0 
-17 115 -105 -106 0 
-18 7 11 14 15 28 30 42 114 0 
-19 26 110 0 
-20 109 0 
-21 10 31 35 43 56 75 77 -22 116 0 
-23 66 108 0 
-24 110 0 
-25 108 0 
-18 7 11 14 15 28 30 42 116 0 
-26 19 110 0 
-20 108 0 
-6 4 32 48 61 64 71 85 93 99 -27 80 108 0 
-28 7 11 14 15 18 30 42 109 0 
-29 37 44 45 53 63 117 0 
-23 66 109 0 
-30 7 11 14 15 18 28 42 115 -105 -106 0 
-31 10 21 35 43 56 75 77 -32 4 6 48 61 64 71 85 93 99 113 -105 -106 -115 0 
-33 109 0 
-34 3 12 -35 10 21 31 43 56 75 77 118 -105 -106 -115 0 
-36 38 70 89 91 115 -105 -106 0 
-37 29 44 45 53 63 -18 7 11 14 15 28 30 42 109 0 
-38 36 70 89 91 -13 115 -105 -106 0 
-39 59 60 76 79 101 111 -105 -106 -115 0 
-35 10 21 31 43 56 75 77 118 -105 -106 -115 0 
-40 49 97 118 -105 -106 -115 0 
-41 98 115 -105 -106 0 
-42 7 11 14 15 18 28 30 118 -105 -106 -115 0 
-30 7 11 14 15 18 28 42 119 -105 -106 -115 0 
-43 10 21 31 35 56 75 77 111 -105 -106 -115 0 
-44 29 37 45 53 63 115 -105 -106 0 
-43 10 21 31 35 56 75 77 119 -105 -106 -115 0 
-45 29 37 44 53 63 115 -105 -106 0 
-38 36 70 89 91 -46 115 -105 -106 0 
-47 86 109 0 
-9 5 8 -11 7 14 15 18 28 30 42 112 0 
-9 5 8 -10 21 31 35 43 56 75 77 112 0 
-48 4 6 32 61 64 71 85 93 99 111 -105 -106 -115 0 
-29 37 44 45 53 63 110 0 
-43 10 21 31 35 56 75 77 115 -105 -106 0 
-16 -21 10 31 35 43 56 75 77 114 0 
-49 40 97 118 -105 -106 -115 0 
-38 36 70 89 91 -50 115 -105 -106 0 
-51 55 69 112 0 
-51 55 69 110 0 
-9 5 8 -11 7 14 15 18 28 30 42 110 0 
-52 65 -37 29 44 45 53 63 110 0 
-53 29 37 44 45 63 -15 7 11 14 18 28 30 42 113 -105 -106 -115 0 
-54 114 0 
-55 51 69 110 0 
-55 51 69 112 0 
-30 7 11 14 15 18 28 42 111 -105 -106 -115 0 
-56 10 21 31 35 43 75 77 109 0 
-1 109 0 
-57 106 -105 -115 0 
-57 105 -106 -115 0 
-37 29 44 45 53 63 109 0 
-37 29 44 45 53 63 108 0 
-27 80 106 -105 -115 0 
-27 80 105 -106 -115 0 
-58 90 107 0 
-59 39 60 76 79 101 108 0 
-60 39 59 76 79 101 109 0 
-29 37 44 45 53 63 108 0 
-61 4 6 32 48 64 71 85 93 99 109 0 
-29 37 44 45 53 63 109 0 
-61 4 6 32 48 64 71 85 93 99 108 0 
-62 116 0 
-63 29 37 44 45 53 -16 114 0 
-18 7 11 14 15 28 30 42 -64 4 6 32 48 61 71 85 93 99 110 0 
-21 10 31 35 43 56 75 77 114 0 
-65 52 -66 23 118 -105 -106 -115 0 
-63 29 37 44 45 53 -52 65 116 0 
-67 96 115 -105 -106 0 
-68 -27 80 109 0 
-69 51 55 109 0 
-70 36 38 89 91 114 0 
-46 -71 4 6 32 48 61 64 85 93 99 120 -105 -106 -115 0 
-34 3 12 -20 109 0 
-72 -53 29 37 44 45 63 110 0 
-53 29 37 44 45 63 -73 114 0 
-74 110 0 
-34 3 12 114 0 
-75 10 21 31 35 43 56 77 -12 3 34 109 0 
-76 39 59 60 79 101 108 0 
-1 105 -106 -115 0 
-1 106 -105 -115 0 
-18 7 11 14 15 28 30 42 108 0 
-18 7 11 14 15 28 30 42 109 0 
-72 121 0 
-52 65 121 0 
-66 23 118 -105 -106 -115 0 
-4 6 32 48 61 64 71 85 93 99 117 0 
-77 10 21 31 35 43 56 75 107 0 
-78 2 102 108 0 
-70 36 38 89 91 117 0 
-52 65 110 0 
-78 2 102 117 0 
-78 2 102 122 0 
-59 39 60 76 79 101 109 0 
-79 39 59 60 76 101 108 0 
-80 27 -81 -82 103 -83 -68 123 -105 -106 -115 -3 -12 -34 0 
-80 27 -81 -68 -84 105 -106 -115 0 
-80 27 -81 -24 109 0 
-80 27 -81 -68 -84 106 -105 -115 0 
-14 7 11 15 18 28 30 42 109 0 
-10 21 31 35 43 56 75 77 108 0 
-85 4 6 32 48 61 64 71 93 99 107 0 
-6 4 32 48 61 64 71 85 93 99 -27 80 109 0 
-1 109 0 
-64 4 6 32 48 61 71 85 93 99 122 0 
-86 47 107 0 
-70 36 38 89 91 -27 80 108 0 
-70 36 38 89 91 -27 80 109 0 
-87 -1 109 0 
-87 -1 106 -105 -115 0 
-1 123 -105 -106 -115 -3 -12 -34 0 
-1 109 0 
-88 -43 10 21 31 35 56 75 77 119 -105 -106 -115 0 
-89 36 38 70 91 -21 10 31 35 43 56 75 77 109 0 
-43 10 21 31 35 56 75 77 -90 58 -91 36 38 70 89 115 -105 -106 0 
-92 115 -105 -106 0 
-43 10 21 31 35 56 75 77 -30 7 11 14 15 18 28 42 -91 36 38 70 89 115 -105 -106 0 
-93 4 6 32 48 61 64 71 85 99 115 -105 -106 0 
-94 -53 29 37 44 45 63 115 -105 -106 0 
-50 -53 29 37 44 45 63 115 -105 -106 0 
-16 -9 5 8 114 0 
-95 115 -105 -106 0 
-96 67 115 -105 -106 0 
-97 40 49 -5 8 9 -90 58 115 -105 -106 0 
-98 41 115 -105 -106 0 
-99 4 6 32 48 61 64 71 85 93 111 -105 -106 -115 0 
-100 -49 40 97 118 -105 -106 -115 0 
-70 36 38 89 91 107 0 
-97 40 49 107 0 
-101 39 59 60 76 79 109 0 
-14 7 11 15 18 28 30 42 108 0 
-102 2 78 109 0 
-96 67 111 -105 -106 -115 0 
-12 3 34 109 0 
-80 27 -81 -103 82 -104 109 0 
